max: -3.0v1  - 3.0v3  - 2.0v4  - 3.0v5  - 1.0v6  - 1.0v8  - 10.0v9 + 5.0v10 + 6.0v11  - 1.0v12  - 1.0v13 + 3.0v14 + 1.0v15 + 5.0v16 + 1.0v17 + 5.0v18 + 6.0v19 + 10.0v20 + 2.0v21 + 3.0v22  - 2.0v23  - 7.0v24 + 5.0v25 + 2.0v26  - 4.0v27 + 3.0v28 + 2.0v30 + 4.0v31 + 4.0v32 + 1.0v33  - 8.0v34  - 5.0v35  - 2.0v36 + 4.0v37  - 3.0v38 + 1.0v39 + 2.0v40  - 1.0v41  - 3.0v42  - 6.0v43 + 5.0v44 + 3.0v45 + 10.0v46 + 1.0v48 + 2.0v49 + 2.0v50;

v44 + v49 + v45 >= 0;
v46 + 1 - v43 + v5 >= 0;
v3 + 1 - v15 + v11 >= 0;
v5 + v29 + v39 >= 0;
1 - v5 + 1 - v30 + v31 >= 0;
v20 + v41 + 1 - v8 >= 0;
v20 + 1 - v10 + v23 >= 0;
v45 + 1 - v34 + v17 >= 0;
v25 + v48 + 1 - v35 >= 0;
v37 + 1 - v5 + v19 >= 0;
1 - v27 + v5 + v7 >= 0;
1 - v15 + v38 + v30 >= 0;
v39 + v6 + 1 - v45 >= 0;
1 - v12 + 1 - v35 + 1 - v47 >= 0;
v35 + v40 + v4 >= 0;
1 - v30 + 1 - v27 + 1 - v15 >= 0;
1 - v35 + 1 - v28 + v15 >= 0;
v1 + v33 + v9 >= 0;
1 - v46 + 1 - v5 + v16 >= 0;
1 - v28 + v29 + v5 >= 0;
v10 + 1 - v33 + 1 - v50 >= 0;
v3 + v15 + v24 >= 0;
1 - v21 + v11 + v45 >= 0;
v49 + v17 + v18 >= 0;
v16 + v38 + 1 - v36 >= 0;
1 - v43 + v28 + v22 >= 0;
v40 + v5 + 1 - v16 >= 0;
v25 + v43 + v37 >= 0;
v33 + 1 - v21 + 1 - v24 >= 0;
1 - v8 + v1 + 1 - v22 >= 0;
v34 + v13 + v18 >= 0;
v7 + v44 + 1 - v24 >= 0;
1 - v48 + v32 + v37 >= 0;
v42 + 1 - v34 + v29 >= 0;
v49 + 1 - v42 + 1 - v14 >= 0;
1 - v10 + v19 + 1 - v45 >= 0;
v46 + v30 + v44 >= 0;
v14 + 1 - v50 + 1 - v33 >= 0;
1 - v9 + 1 - v25 + v17 >= 0;
v1 + v38 + 1 - v43 >= 0;
1 - v47 + v18 + 1 - v42 >= 0;
v40 + v50 + 1 - v35 >= 0;
v22 + 1 - v2 + 1 - v17 >= 0;
v30 + 1 - v10 + v16 >= 0;
1 - v17 + 1 - v37 + 1 - v9 >= 0;
v27 + v12 + v33 >= 0;
1 - v8 + v44 + v3 >= 0;
1 - v27 + 1 - v23 + 1 - v7 >= 0;
v42 + 1 - v24 + 1 - v1 >= 0;
1 - v23 + 1 - v7 + 1 - v36 >= 0;
1 - v18 + 1 - v13 + 1 - v41 >= 0;
v3 + 1 - v38 + 1 - v40 >= 0;
v10 + 1 - v6 + v14 >= 0;
v7 + 1 - v41 + v32 >= 0;
1 - v6 + v21 + v29 >= 0;
v21 + v19 + v28 >= 0;
1 - v7 + 1 - v21 + 1 - v46 >= 0;
v38 + v35 + 1 - v32 >= 0;
1 - v10 + v8 + v20 >= 0;
1 - v13 + v20 + 1 - v38 >= 0;
1 - v7 + 1 - v31 + 1 - v8 >= 0;
1 - v42 + 1 - v49 + v46 >= 0;
1 - v13 + 1 - v32 + v6 >= 0;
1 - v24 + 1 - v42 + 1 - v13 >= 0;
1 - v11 + 1 - v45 + v47 >= 0;
1 - v37 + 1 - v42 + 1 - v39 >= 0;
v19 + v18 + v28 >= 0;
1 - v36 + v18 + 1 - v3 >= 0;
v47 + 1 - v34 + v27 >= 0;
1 - v36 + 1 - v38 + 1 - v3 >= 0;
1 - v40 + v22 + v31 >= 0;
1 - v8 + 1 - v34 + 1 - v24 >= 0;
v8 + v34 + v46 >= 0;
v46 + 1 - v21 + v40 >= 0;
1 - v30 + 1 - v16 + 1 - v4 >= 0;
v21 + v38 + v10 >= 0;
1 - v7 + v24 + v8 >= 0;
v8 + 1 - v17 + v39 >= 0;
1 - v9 + 1 - v23 + v33 >= 0;
v15 + v25 + v27 >= 0;
v6 + 1 - v28 + 1 - v12 >= 0;
1 - v40 + v35 + v1 >= 0;
1 - v3 + v22 + v28 >= 0;
1 - v4 + 1 - v34 + v28 >= 0;
v48 + v45 + v46 >= 0;
v50 + 1 - v19 + v30 >= 0;
1 - v39 + v23 + v42 >= 0;
1 - v50 + v23 + v28 >= 0;
v32 + v18 + v36 >= 0;
1 - v30 + 1 - v2 + v12 >= 0;
v28 + 1 - v26 + 1 - v42 >= 0;
v15 + v25 + v48 >= 0;
1 - v13 + 1 - v14 + v41 >= 0;
1 - v43 + 1 - v22 + 1 - v23 >= 0;
v45 + 1 - v10 + v30 >= 0;
v30 + v13 + v32 >= 0;
1 - v47 + 1 - v35 + v44 >= 0;
v13 + 1 - v4 + v21 >= 0;
1 - v9 + v36 + v33 >= 0;
1 - v9 + v7 + v22 >= 0;
v44 + v42 + 1 - v20 >= 0;
1 - v43 + v10 + v25 >= 0;
v43 + v16 + v20 >= 0;
v26 + v28 + v48 >= 0;
v20 + 1 - v17 + 1 - v42 >= 0;
v48 + 1 - v21 + v19 >= 0;
1 - v15 + 1 - v44 + 1 - v34 >= 0;
v43 + 1 - v13 + 1 - v19 >= 0;
1 - v32 + v10 + 1 - v28 >= 0;
v10 + 1 - v35 + 1 - v5 >= 0;
v50 + v37 + 1 - v5 >= 0;
v28 + v22 + 1 - v32 >= 0;
1 - v11 + v15 + v42 >= 0;
1 - v11 + 1 - v3 + v34 >= 0;
1 - v26 + v1 + v36 >= 0;
v14 + v2 + v11 >= 0;
1 - v7 + v47 + v41 >= 0;
1 - v18 + 1 - v27 + 1 - v9 >= 0;
1 - v8 + 1 - v49 + v16 >= 0;
v21 + 1 - v42 + 1 - v3 >= 0;
1 - v15 + v44 + v38 >= 0;
1 - v41 + v11 + v47 >= 0;
v46 + 1 - v36 + 1 - v35 >= 0;
v37 + 1 - v40 + v31 >= 0;
v19 + v6 + v12 >= 0;
1 - v48 + v22 + v49 >= 0;
1 - v42 + v46 + 1 - v23 >= 0;
1 - v47 + v20 + v26 >= 0;
1 - v12 + v10 + 1 - v48 >= 0;
v13 + 1 - v30 + 1 - v39 >= 0;
1 - v29 + 1 - v48 + v18 >= 0;
v39 + v25 + 1 - v18 >= 0;
1 - v1 + 1 - v9 + 1 - v11 >= 0;
1 - v35 + 1 - v1 + v44 >= 0;
v15 + 1 - v6 + 1 - v34 >= 0;
v50 + 1 - v9 + v32 >= 0;
v40 + 1 - v24 + v39 >= 0;
v49 + v35 + 1 - v9 >= 0;
1 - v44 + 1 - v45 + 1 - v48 >= 0;
1 - v42 + v46 + v26 >= 0;
v44 + v34 + v41 >= 0;
v50 + 1 - v42 + 1 - v43 >= 0;
v6 + v11 + 1 - v2 >= 0;
1 - v9 + 1 - v16 + 1 - v46 >= 0;
v37 + 1 - v34 + v31 >= 0;
v21 + 1 - v23 + v39 >= 0;
v17 + 1 - v33 + v49 >= 0;
v3 + v45 + v35 >= 0;
1 - v2 + v20 + v21 >= 0;
v33 + v2 + v46 >= 0;
v19 + 1 - v35 + 1 - v46 >= 0;
v14 + v13 + 1 - v11 >= 0;
v36 + 1 - v24 + v45 >= 0;
1 - v25 + 1 - v29 + 1 - v24 >= 0;
v8 + v40 + 1 - v3 >= 0;
1 - v39 + 1 - v38 + 1 - v22 >= 0;
v9 + v45 + v11 >= 0;
1 - v6 + v40 + v4 >= 0;
1 - v1 + v46 + v33 >= 0;
v3 + 1 - v29 + v11 >= 0;
v32 + 1 - v37 + 1 - v1 >= 0;
v4 + v42 + 1 - v29 >= 0;
1 - v23 + 1 - v18 + v35 >= 0;
v35 + 1 - v44 + v47 >= 0;
1 - v38 + 1 - v41 + 1 - v45 >= 0;
v11 + 1 - v27 + v31 >= 0;
v45 + 1 - v34 + v4 >= 0;
v18 + 1 - v19 + 1 - v34 >= 0;
1 - v3 + 1 - v31 + v20 >= 0;
v16 + 1 - v34 + 1 - v50 >= 0;
1 - v4 + v42 + v22 >= 0;
1 - v47 + v48 + 1 - v35 >= 0;
1 - v16 + 1 - v38 + 1 - v1 >= 0;
1 - v26 + v42 + v46 >= 0;
1 - v7 + 1 - v3 + v17 >= 0;
1 - v30 + v20 + 1 - v4 >= 0;
v31 + 1 - v7 + v50 >= 0;
1 - v39 + 1 - v38 + 1 - v15 >= 0;
v20 + 1 - v9 + 1 - v36 >= 0;
1 - v17 + v37 + 1 - v43 >= 0;
v3 + 1 - v4 + 1 - v10 >= 0;
v7 + v17 + v38 >= 0;
1 - v22 + 1 - v6 + 1 - v13 >= 0;
v26 + v2 + 1 - v5 >= 0;
1 - v50 + v29 + 1 - v22 >= 0;
1 - v33 + v15 + 1 - v1 >= 0;
v23 + 1 - v27 + v4 >= 0;
1 - v35 + 1 - v4 + v26 >= 0;
1 - v43 + v14 + v10 >= 0;
v32 + v25 + v50 >= 0;
v50 + 1 - v49 + 1 - v26 >= 0;
1 - v37 + v14 + v23 >= 0;
v10 + 1 - v9 + 1 - v35 >= 0;
1 - v49 + 1 - v12 + v2 >= 0;
1 - v28 + 1 - v11 + 1 - v24 >= 0;
1 - v31 + v26 + v10 >= 0;
v18 + v30 + 1 - v28 >= 0;
v18 + v11 + 1 - v42 >= 0;
1 - v45 + v16 + 1 - v1 >= 0;
1 - v20 + v38 + v46 >= 0;
1 - v27 + 1 - v50 + v48 >= 0;
v42 + v49 + 1 - v43 >= 0;
1 - v3 + v23 + v7 >= 0;
1 - v33 + v20 + 1 - v38 >= 0;
v19 + 1 - v35 + v37 >= 0;
1 - v38 + 1 - v5 + 1 - v6 >= 0;
1 - v49 + v32 + 1 - v35 >= 0;
1 - v38 + 1 - v5 + 1 - v14 >= 0;
v16 + v31 + v7 >= 0;
1 - v3 + 1 - v33 + 1 - v7 >= 0;
1 - v44 + v35 + 1 - v38 >= 0;
v35 + v19 + v11 >= 0;
v10 + 1 - v48 + v16 >= 0;
v11 + v7 + v45 >= 0;
1 - v40 + v13 + 1 - v41 >= 0;
v30 + 1 - v45 + 1 - v23 >= 0;
v46 + 1 - v29 + v11 >= 0;
1 - v18 + v7 + 1 - v34 >= 0;
0 <= v1 <= 1;
0 <= v2 <= 1;
0 <= v3 <= 1;
0 <= v4 <= 1;
0 <= v5 <= 1;
0 <= v6 <= 1;
0 <= v7 <= 1;
0 <= v8 <= 1;
0 <= v9 <= 1;
0 <= v10 <= 1;
0 <= v11 <= 1;
0 <= v12 <= 1;
0 <= v13 <= 1;
0 <= v14 <= 1;
0 <= v15 <= 1;
0 <= v16 <= 1;
0 <= v17 <= 1;
0 <= v18 <= 1;
0 <= v19 <= 1;
0 <= v20 <= 1;
0 <= v21 <= 1;
0 <= v22 <= 1;
0 <= v23 <= 1;
0 <= v24 <= 1;
0 <= v25 <= 1;
0 <= v26 <= 1;
0 <= v27 <= 1;
0 <= v28 <= 1;
0 <= v29 <= 1;
0 <= v30 <= 1;
0 <= v31 <= 1;
0 <= v32 <= 1;
0 <= v33 <= 1;
0 <= v34 <= 1;
0 <= v35 <= 1;
0 <= v36 <= 1;
0 <= v37 <= 1;
0 <= v38 <= 1;
0 <= v39 <= 1;
0 <= v40 <= 1;
0 <= v41 <= 1;
0 <= v42 <= 1;
0 <= v43 <= 1;
0 <= v44 <= 1;
0 <= v45 <= 1;
0 <= v46 <= 1;
0 <= v47 <= 1;
0 <= v48 <= 1;
0 <= v49 <= 1;
0 <= v50 <= 1;
